[[25, 55, 18, 50, 32, 44, 3, 24, 49, 16, 63, 23, 56, 43, 41, 42, 64, 22, 61, 28, 74, 62, 2, 73, 33, 6, 51, 17, 40, 12, 26, 67, 76, 75, 68, 4, 30], [45, 29, 48, 5, 47, 21, 36, 69, 71, 60, 70, 20, 37, 15, 57, 13, 54, 27, 52, 34, 46, 8, 7, 35, 53, 19, 14, 59, 66, 11, 65, 38, 10, 58, 72, 39, 9, 31]]